WARNING: for repeatability, setting FPU to use double precision
============================[ Problem Statistics ]=============================
|                                                                             |
|  Number of variables:            50                                         |
|  Number of clauses:             218                                         |
|  Parse time:                   0.00 s                                       |
|                                                                             |
============================[ Search Statistics ]==============================
| Conflicts |          ORIGINAL         |          LEARNT          | Progress |
|           |    Vars  Clauses Literals |    Limit  Clauses Lit/Cl |          |
===============================================================================
===============================================================================
restarts              : 1
conflicts             : 78             (60232 /sec)
decisions             : 84             (0.00 % random) (64865 /sec)
propagations          : 1095           (845560 /sec)
conflict literals     : 315            (15.32 % deleted)
Memory used           : 20.00 MB
CPU time              : 0.001295 s

UNSATISFIABLE
